Reading model...
...model read.
creating competitive generators file...
...competitive generators recorded.
Loading data...
.. real-time data read.
Compiling instance...
...instance created.
Creating Offer Mitigation (model will solve as dispatch if TRUE)...
...storage offer mitigation file created
Converting model to MPEC...
...converted
NOTE: initial MIP solve with only storage competitive to get feasible solution
Solving...

Welcome to IBM(R) ILOG(R) CPLEX(R) Interactive Optimizer 12.9.0.0
  with Simplex, Mixed Integer & Barrier Optimizers
5725-A06 5725-A29 5724-Y48 5724-Y49 5724-Y54 5724-Y55 5655-Y21
Copyright IBM Corp. 1988, 2019.  All Rights Reserved.

Type 'help' for a list of available commands.
Type 'help' followed by a command name for more
information on commands.

CPLEX> Logfile 'cplex.log' closed.
Logfile 'C:\Users\llavin\Desktop\test85\logs\tmpphx6q20d.cplex.log' open.
CPLEX> New value for parallel optimization mode: -1
CPLEX> New value for mixed integer optimality gap tolerance: 0.05
CPLEX> New value for deterministic time limit in ticks: 100000
CPLEX> Problem 'C:\Users\llavin\Desktop\test85\logs\tmp7hfpyz12.pyomo.lp' read.
Read time = 0.52 sec. (27.87 ticks)
CPLEX> Problem name         : C:\Users\llavin\Desktop\test85\logs\tmp7hfpyz12.pyomo.lp
Objective sense      : Maximize
Variables            :  107779  [Nneg: 1,  Box: 44054,  Free: 8928,
                                 Binary: 54796]
Objective nonzeros   :   19154
Linear constraints   :  246995  [Less: 82866,  Greater: 118424,  Equal: 45705]
  Nonzeros           :  582461
  RHS nonzeros       :  136272

Variables            : Min LB: -5000.000        Max UB: 1000000.       
Objective nonzeros   : Min   : 0.02500000       Max   : 2500.000       
Linear constraints   :
  Nonzeros           : Min   : 0.02500000       Max   : 1000000.       
  RHS nonzeros       : Min   : 0.02500000       Max   : 1000000.       
CPLEX> CPXPARAM_Parallel                                -1
CPXPARAM_DetTimeLimit                            100000
CPXPARAM_MIP_Tolerances_MIPGap                   0.050000000000000003
Tried aggregator 3 times.
MIP Presolve eliminated 173247 rows and 34215 columns.
MIP Presolve added 7723 rows and 0 columns.
MIP Presolve modified 52148 coefficients.
Aggregator did 26022 substitutions.
Reduced MIP has 55449 rows, 47158 columns, and 151549 nonzeros.
Reduced MIP has 18700 binaries, 0 generals, 0 SOSs, and 0 indicators.
Presolve time = 0.63 sec. (345.70 ticks)
Probing fixed 696 vars, tightened 8679 bounds.
Probing time = 0.44 sec. (15.94 ticks)
Tried aggregator 2 times.
MIP Presolve eliminated 1576 rows and 1403 columns.
MIP Presolve modified 7156 coefficients.
Aggregator did 96 substitutions.
Reduced MIP has 53777 rows, 45659 columns, and 146671 nonzeros.
Reduced MIP has 18002 binaries, 0 generals, 0 SOSs, and 0 indicators.
Presolve time = 0.31 sec. (267.74 ticks)
Probing fixed 0 vars, tightened 78 bounds.
Probing time = 0.61 sec. (16.59 ticks)
Clique table members: 92264.
MIP emphasis: balance optimality and feasibility.
MIP search method: dynamic search.
Parallel mode: opportunistic, using up to 32 threads.
Root relaxation solution time = 1.50 sec. (2729.85 ticks)

        Nodes                                         Cuts/
   Node  Left     Objective  IInf  Best Integer    Best Bound    ItCnt     Gap

      0     0     -552.5684   217                   -552.5684    11979         
      0     0     -552.6748    38                   Cuts: 149    12041         
      0     0     -561.8015    37                    Cuts: 39    12083         
      0     0     -564.9697    53                    Cuts: 55    12141         
      0     0     -569.1844    53                    Cuts: 57    12171         
      0     0     -580.3516    53                    Cuts: 46    12193         
      0     0     -634.4877    54                    Cuts: 15    12223         
      0     0     -645.0481    57                    Cuts: 13    12238         
      0     0     -651.8137    55                    Cuts: 14    12255         
      0     0     -655.7960    54                    Cuts: 43    12266         
      0     0     -684.1395    58                    Cuts: 12    12295         
      0     0     -691.4561    56                    Cuts: 12    12315         
      0     0     -703.2438    57                    Cuts: 38    12348         
      0     0     -728.4342    53                    Cuts: 11    12375         
      0     0     -730.4115    57                    Cuts: 30    12385         
      0     0     -754.9572    59                     Cuts: 8    12398         
      0     0     -759.1027    61                     Cuts: 8    12404         
      0     0     -796.0916    61                    Cuts: 10    12421         
      0     0     -826.1461    66                    Cuts: 13    12433         
      0     0     -832.9014    67                 Flowcuts: 6    12440         
      0     0     -847.0045    68                     Cuts: 6    12455         
      0     0     -847.0940    71                    Cuts: 11    12464         
      0     0     -850.7224    64                  MIRcuts: 1    12470         
      0     0     -850.8118    69                    Cuts: 28    12486         
      0    19    infeasible                         -978.8393    13351         
Elapsed time = 17.05 sec. (11173.32 ticks, tree = 0.02 MB, solutions = 0)
    300    51    -1586.9026    19                  -1111.9900    13687         
    604   270    -2822.3608    10                  -1111.9900    16912         
    779   417    -2353.7919    13                  -1111.9900    19689         
*   887+  351                        -1679.4843    -1111.9900            33.79%
*  1087   411      integral     0    -1673.0726    -1111.9900    25328   33.54%
*  1130   643      integral     0    -1672.1992    -1111.9900    25094   33.50%
*  1307+  411                        -1667.0575    -1111.9900            33.30%
   1346   399    -1635.5588     1    -1667.0575    -1112.4625    26103   33.27%
   1498   265    -1161.8371    33    -1667.0575    -1112.4625    33442   33.27%
   1721   287        cutoff          -1659.6011    -1112.4625    34147   32.97%
*  1831   325      integral     0    -1653.6541    -1112.4625    34767   32.73%
Elapsed time = 30.81 sec. (13059.71 ticks, tree = 3.99 MB, solutions = 8)
   3229   454    -1525.9927    44    -1653.6541    -1144.7981    44420   30.77%
   4457   527    -1586.7846    63    -1653.6541    -1527.4783    53466    7.63%

Cover cuts applied:  20
Implied bound cuts applied:  81
Flow cuts applied:  163
Mixed integer rounding cuts applied:  11
Zero-half cuts applied:  1
Gomory fractional cuts applied:  35

Root node processing (before b&c):
  Real time             =   14.78 sec. (11142.20 ticks)
Parallel b&c, 32 threads:
  Real time             =   33.31 sec. (4771.06 ticks)
  Sync time (average)   =    4.82 sec.
  Wait time (average)   =    0.00 sec.
                          ------------
Total (root+branch&cut) =   48.09 sec. (15913.26 ticks)

Solution pool: 8 solutions saved.

MIP - Integer optimal, tolerance (0.05/1e-06):  Objective = -1.6536541139e+03
Current MIP best bound = -1.5712340341e+03 (gap = 82.4201, 4.98%)
Solution time =   48.09 sec.  Iterations = 64428  Nodes = 5077 (425)
Deterministic time = 15913.57 ticks  (330.88 ticks/sec)

CPLEX> Incumbent solution written to file 'C:\Users\llavin\Desktop\test85\logs\tmp19d45gdt.cplex.sol'.
CPLEX> NOTE: no warmstart specified for MIP iteration, default behavior is true
NOTE: resolving with all competitive generators using storage-only solution to warmstart
Solving...

Welcome to IBM(R) ILOG(R) CPLEX(R) Interactive Optimizer 12.9.0.0
  with Simplex, Mixed Integer & Barrier Optimizers
5725-A06 5725-A29 5724-Y48 5724-Y49 5724-Y54 5724-Y55 5655-Y21
Copyright IBM Corp. 1988, 2019.  All Rights Reserved.

Type 'help' for a list of available commands.
Type 'help' followed by a command name for more
information on commands.

CPLEX> Logfile 'cplex.log' closed.
Logfile 'C:\Users\llavin\Desktop\test85\logs\tmppn_rdeod.cplex.log' open.
CPLEX> New value for parallel optimization mode: -1
CPLEX> New value for mixed integer optimality gap tolerance: 0.05
CPLEX> New value for deterministic time limit in ticks: 100000
CPLEX> Problem 'C:\Users\llavin\Desktop\test85\logs\tmpqp3nbrug.pyomo.lp' read.
Read time = 0.52 sec. (27.92 ticks)
CPLEX> MIP start file 'C:\Users\llavin\Desktop\test85\logs\tmpdnx21gr1.cplex.mst' read.
CPLEX> Problem name         : C:\Users\llavin\Desktop\test85\logs\tmpqp3nbrug.pyomo.lp
Objective sense      : Maximize
Variables            :  109219  [Nneg: 1,  Box: 45494,  Free: 8928,
                                 Binary: 54796]
Objective nonzeros   :   20546
Linear constraints   :  246995  [Less: 82866,  Greater: 118424,  Equal: 45705]
  Nonzeros           :  582461
  RHS nonzeros       :  136272

Variables            : Min LB: -5000.000        Max UB: 1000000.       
Objective nonzeros   : Min   : 0.02500000       Max   : 2500.000       
Linear constraints   :
  Nonzeros           : Min   : 0.02500000       Max   : 1000000.       
  RHS nonzeros       : Min   : 0.02500000       Max   : 1000000.       
CPLEX> CPXPARAM_Parallel                                -1
CPXPARAM_DetTimeLimit                            100000
CPXPARAM_MIP_Tolerances_MIPGap                   0.050000000000000003
Warning:  No solution found from 1 MIP starts.
Retaining values of one MIP start for possible repair.
Tried aggregator 3 times.
MIP Presolve eliminated 173247 rows and 35655 columns.
MIP Presolve added 7723 rows and 0 columns.
MIP Presolve modified 52148 coefficients.
Aggregator did 26022 substitutions.
Reduced MIP has 55449 rows, 47158 columns, and 151549 nonzeros.
Reduced MIP has 18700 binaries, 0 generals, 0 SOSs, and 0 indicators.
Presolve time = 0.61 sec. (346.46 ticks)
Probing fixed 696 vars, tightened 8679 bounds.
Probing time = 0.42 sec. (15.94 ticks)
Tried aggregator 2 times.
MIP Presolve eliminated 1576 rows and 1403 columns.
MIP Presolve modified 7156 coefficients.
Aggregator did 96 substitutions.
Reduced MIP has 53777 rows, 45659 columns, and 146671 nonzeros.
Reduced MIP has 18002 binaries, 0 generals, 0 SOSs, and 0 indicators.
Presolve time = 0.30 sec. (267.75 ticks)
Probing fixed 0 vars, tightened 78 bounds.
Probing time = 0.58 sec. (16.59 ticks)
Clique table members: 92264.
MIP emphasis: balance optimality and feasibility.
MIP search method: dynamic search.
Parallel mode: opportunistic, using up to 32 threads.
Root relaxation solution time = 1.58 sec. (2859.35 ticks)

        Nodes                                         Cuts/
   Node  Left     Objective  IInf  Best Integer    Best Bound    ItCnt     Gap

      0     0     3812.9491   220                   3812.9491    12519         
*     0+    0                         2183.9535     3812.9491            74.59%
      0     0     3812.2731    67     2183.9535     Cuts: 127    12595   74.56%
      0     0     3810.1138    68     2183.9535      Cuts: 91    12670   61.74%
      0     0     3788.7793   101     2183.9535     Cuts: 128    12842   61.74%
*     0+    0                         2292.2286     3532.4056            54.10%
Repair heuristic succeeded.
      0     7        cutoff           2292.2286  Impl Bds: 25    13072   54.10%
Elapsed time = 12.66 sec. (7424.32 ticks, tree = 0.02 MB, solutions = 2)
     92    16     3593.5080    79     2292.2286     3532.4056    13327   54.10%
    329    62     2738.8455    25     2292.2286     3532.4056    14731   54.10%
    594    64     3000.9915    39     2292.2286     3532.4056    14897   54.10%
    844   260     2335.5092     5     2292.2286     3532.4056    18130   54.10%
   1090   517        cutoff           2292.2286     3532.4056    23805   54.10%
   1320   650        cutoff           2292.2286     3228.9918    26858   40.87%
   1472   691     2610.5752    34     2292.2286     3225.7889    31724   40.73%
   1614   699     2735.0905    28     2292.2286     2789.3673    32667   21.69%
   1812   697     2615.6825    43     2292.2286     2789.3673    31396   21.69%
   3205  1436     2368.6612    12     2292.2286     2628.0195    43052   14.65%
Elapsed time = 38.63 sec. (10530.37 ticks, tree = 21.26 MB, solutions = 2)
   4974  1796        cutoff           2292.2286     2553.1092    46433   11.38%
   6706  3064        cutoff           2292.2286     2553.0962    55080   11.38%
   8474  4196     2473.8907    22     2292.2286     2553.0905    62631   11.38%
   8778  5195    infeasible           2292.2286     2551.5344    84551   11.31%
   9220    53     2501.5052    23     2292.2286     2501.5052    84903    9.13%
   9776    54     2410.2813    19     2292.2286     2501.5052    84879    9.13%
  10443    54     2397.6769    19     2292.2286     2501.5052    84997    9.13%
  11439   145     2438.3768    12     2292.2286     2495.7125    87372    8.88%
  12283   151     2389.9636     3     2292.2286     2495.7125    86480    8.88%
  13241   461     2431.8704    10     2292.2286     2472.4775    90619    7.86%
Elapsed time = 156.56 sec. (28952.13 ticks, tree = 8.86 MB, solutions = 2)
  14796  1894     2403.1625     1     2292.2286     2472.4775    96148    7.86%
  16344  1044     2403.1625     1     2292.2286     2472.4775    93249    7.86%
  18395  1320     2438.3008    12     2292.2286     2472.4775    94132    7.86%
  20492  2959     2438.2767     7     2292.2286     2472.4775    99797    7.86%
  22198  6066     2292.6840    15     2292.2286     2438.8693   109247    6.40%
  24037  9191     2404.0699    15     2292.2286     2438.8615   117122    6.40%
  26218  4154        cutoff           2292.2286     2438.8615   103701    6.40%
  28378  6546     2316.3040    16     2292.2286     2438.8615   110412    6.40%
  30663 10266     2315.7704    11     2292.2286     2438.8615   120259    6.40%
  32900 10739     2308.5719    13     2292.2286     2438.8345   121470    6.40%
Elapsed time = 211.13 sec. (38493.26 ticks, tree = 182.67 MB, solutions = 2)
  34955 16727     2316.2481    16     2292.2286     2438.8345   136231    6.40%
  36942 14297     2315.9135    20     2292.2286     2438.8345   130321    6.40%
  38895 14986     2314.1085    14     2292.2286     2438.8345   131930    6.40%
  40795 15714     2316.2320    14     2292.2286     2438.7785   133810    6.39%
  42691 20527     2315.9218    24     2292.2286     2438.7785   145878    6.39%
  44387 21248     2402.8432    16     2292.2286     2438.7785   147651    6.39%
  46183 22588        cutoff           2292.2286     2438.7785   150411    6.39%
  47926 24551     2315.8464    12     2292.2286     2438.7707   155240    6.39%
  49348 26059     2316.2320    14     2292.2286     2438.7707   158837    6.39%
  50825 27764     2403.7594    14     2292.2286     2438.7707   163242    6.39%
Elapsed time = 261.64 sec. (48034.85 ticks, tree = 486.46 MB, solutions = 2)
  53032 29725     2316.1721    14     2292.2286     2438.7707   167568    6.39%
  55210 27744     2423.5912    17     2292.2286     2438.7707   163101    6.39%
  57477 34073     2403.6765    11     2292.2286     2438.7707   177636    6.39%
  59902 31536     2394.0617    20     2292.2286     2438.7707   171725    6.39%
  62298 37326     2315.8464    11     2292.2286     2438.7707   185139    6.39%
  64762 32765     2315.5279    20     2292.2286     2438.7707   174486    6.39%
  67256 39917     2404.0022    13     2292.2286     2438.7707   191456    6.39%
  69559 41020     2315.8464    14     2292.2286     2438.7707   194787    6.39%
  71605 39955     2438.3768    15     2292.2286     2438.7707   191553    6.39%
  73493 45411     2403.6765    12     2292.2286     2438.7707   206482    6.39%
Elapsed time = 308.84 sec. (57579.41 ticks, tree = 803.93 MB, solutions = 2)
  75160 44062     2403.6765    13     2292.2286     2438.7707   203034    6.39%
  76623 46715     2403.6765    13     2292.2286     2438.7707   209688    6.39%
  77826 57291        cutoff           2292.2286     2438.5382   254628    6.38%
  78290   280     2405.7689    22     2292.2286     2438.5382   256802    6.38%
  78934   310     2369.6152    20     2292.2286     2438.5382   256906    6.38%
  79633   406     2334.9149    17     2292.2286     2438.5382   258033    6.38%
  80610  3096     2377.2016    19     2292.2286     2438.5382   276176    6.38%
  81710  1107     2296.9994    16     2292.2286     2438.5382   262215    6.38%
  82729  3099     2406.8543    19     2292.2286     2438.5382   276340    6.38%
  83671  3103        cutoff           2292.2286     2438.5382   276517    6.38%
Elapsed time = 417.02 sec. (76744.19 ticks, tree = 50.62 MB, solutions = 2)
  84720   601        cutoff           2292.2286     2438.5382   258767    6.38%
  85885  3209     2439.1980    18     2292.2286     2438.5382   276846    6.38%
  86947  3240     2377.2016    19     2292.2286     2438.5382   276774    6.38%
  87765  3137        cutoff           2292.2286     2438.5382   276551    6.38%
  88294  3248        cutoff           2292.2286     2438.5382   277278    6.38%
  88686  3393     2439.1980    18     2292.2286     2438.5382   277959    6.38%
  88933  3318     2369.6152    19     2292.2286     2438.5382   277058    6.38%
  89087  3414     2369.6152    21     2292.2286     2438.5382   277856    6.38%
  89188  3483     2409.5453    19     2292.2286     2438.5382   278471    6.38%
  89309  4161     2419.5298    17     2292.2286     2438.5382   292139    6.38%
Elapsed time = 420.08 sec. (86357.36 ticks, tree = 66.43 MB, solutions = 2)
  89383  3703     2295.8693    15     2292.2286     2438.5382   282328    6.38%
  89447  3896     2334.9149    17     2292.2286     2438.5382   285524    6.38%
  89501  4210        cutoff           2292.2286     2438.5382   295199    6.38%

Cover cuts applied:  6
Implied bound cuts applied:  2
Flow cuts applied:  118
Mixed integer rounding cuts applied:  78
Zero-half cuts applied:  1
Gomory fractional cuts applied:  15

Root node processing (before b&c):
  Real time             =   10.19 sec. (7388.70 ticks)
Parallel b&c, 32 threads:
  Real time             =  410.45 sec. (82199.25 ticks)
  Sync time (average)   =   25.03 sec.
  Wait time (average)   =    0.66 sec.
                          ------------
Total (root+branch&cut) =  420.64 sec. (89587.96 ticks)

Solution pool: 2 solutions saved.

MIP - Integer optimal, tolerance (0.05/1e-06):  Objective =  2.2922285775e+03
Current MIP best bound =  2.4057891776e+03 (gap = 113.561, 4.95%)
Solution time =  420.69 sec.  Iterations = 319466  Nodes = 89518 (4689)
Deterministic time = 89588.27 ticks  (212.96 ticks/sec)

CPLEX> Incumbent solution written to file 'C:\Users\llavin\Desktop\test85\logs\tmpzdadsamg.cplex.sol'.
CPLEX> Exporting results... 
